
Log started (V11.0.0) Sat May 17 15:00:40 2008

Tried aggregator 1 time.
Reduced MIP has 520 rows, 10001 columns, and 20020 nonzeros.
Presolve time =    0.06 sec.
Clique table members: 500.
MIP emphasis: balance optimality and feasibility.
MIP search method: dynamic search.
Parallel mode: none, using 1 thread.
Root relaxation solution time =    0.53 sec.

        Nodes                                         Cuts/
   Node  Left     Objective  IInf  Best Integer     Best Node    ItCnt     Gap

*     0+    0                        54748.0000     2513.1922      675   95.41%
*     0+    0                         2526.0000     2513.1922      675    0.51%
      0     0     2514.0000    37     2526.0000      Fract: 5      702    0.48%
      0     0     2514.0000    33     2526.0000     Covers: 1      727    0.48%
      0     0     2514.0000    35     2526.0000     Covers: 1      729    0.48%
      0     0     2514.0000    37     2526.0000     Covers: 1      730    0.48%
*     0+    0                         2525.0000     2514.0000      730    0.44%
      0     2     2514.0000    37     2525.0000     2514.0000      730    0.44%
    100    93     2515.0092    39     2525.0000     2514.0000     3723    0.44%
*   200+  130                         2519.0000     2514.0000     8673    0.20%
    200   130     2521.1125    37     2519.0000     2514.0000     8673    0.20%
    300   213    infeasible           2519.0000     2514.0000    15054    0.20%
*   400+  231                         2518.0000     2514.0000    16842    0.16%
    400   233     2514.0000    40     2518.0000     2514.0000    16842    0.16%
    500   329     2515.0000    32     2518.0000     2514.0000    19811    0.16%
*   511+  224                         2516.0000     2514.0000    22034    0.08%
*   511+  149                         2515.0000     2514.0000    22034    0.04%
    600   173     2514.0000    41     2515.0000     2514.0000    26368    0.04%
    700   188     2514.0000    39     2515.0000     2514.0000    30851    0.04%
    800   251     2514.0000    46     2515.0000     2514.0000    37109    0.04%
    900   329     2514.0000    44     2515.0000     2514.0000    40768    0.04%
   1000   403     2514.0000    46     2515.0000     2514.0000    49381    0.04%
Elapsed time =  58.34 sec. (tree size =  3.60 MB, solutions = 7)
   1100   489     2514.0000    39     2515.0000     2514.0000    53530    0.04%
   1200   561     2514.0000    26     2515.0000     2514.0000    61711    0.04%
   1300   621     2514.0000    26     2515.0000     2514.0000    75534    0.04%
   1400   667     2514.0000    28     2515.0000     2514.0000    96107    0.04%
   1500   723     2514.0000    34     2515.0000     2514.0000   109882    0.04%
   1600   777     2514.0000    33     2515.0000     2514.0000   125370    0.04%
   1700   815     2514.0000    32     2515.0000     2514.0000   144906    0.04%
   1800   855    infeasible           2515.0000     2514.0000   166629    0.04%
   1900   901     2514.0000    38     2515.0000     2514.0000   188708    0.04%
   2000   963     2514.0000    36     2515.0000     2514.0000   197432    0.04%
Elapsed time = 140.95 sec. (tree size =  9.18 MB, solutions = 7)
   2100  1049     2514.0000    38     2515.0000     2514.0000   202737    0.04%
   2200  1129     2514.0000    37     2515.0000     2514.0000   207453    0.04%
   2300  1211     2514.0000    36     2515.0000     2514.0000   210466    0.04%
   2400  1273     2514.0000    38     2515.0000     2514.0000   217607    0.04%
   2500  1357     2514.0000    43     2515.0000     2514.0000   223643    0.04%
   2600  1444     2514.0000    47     2515.0000     2514.0000   229241    0.04%
   2700  1536     2514.0000    43     2515.0000     2514.0000   231851    0.04%
   2800  1620    infeasible           2515.0000     2514.0000   234966    0.04%
*  2811+    2                         2514.0000     2514.0000   236376    0.00%

Cover cuts applied:  140
Mixed integer rounding cuts applied:  6
Gomory fractional cuts applied:  7

Solution pool: 8 solutions saved.

MIP - Integer optimal solution:  Objective = 2.5140000000e+003
Solution time =  172.17 sec.  Iterations = 236376  Nodes = 2811


Incumbent solution
Variable Name           Solution Value
Cmax                       2514.000000
X_1_10                        1.000000
X_2_6                         1.000000
X_3_8                         1.000000
X_4_13                        1.000000
X_5_5                         1.000000
X_6_9                         1.000000
X_7_15                        1.000000
X_8_13                        1.000000
X_9_12                        1.000000
X_10_15                       1.000000
X_11_19                       1.000000
X_12_6                        1.000000
X_13_14                       1.000000
X_14_3                        1.000000
X_15_2                        1.000000
X_16_13                       1.000000
X_17_16                       1.000000
X_18_5                        1.000000
X_19_8                        1.000000
X_20_1                        1.000000
X_21_11                       1.000000
X_22_3                        1.000000
X_23_1                        1.000000
X_24_9                        1.000000
X_25_10                       1.000000
X_26_2                        1.000000
X_27_2                        1.000000
X_28_6                        1.000000
X_29_14                       1.000000
X_30_3                        1.000000
X_31_4                        1.000000
X_32_7                        1.000000
X_33_19                       1.000000
X_34_12                       1.000000
X_35_11                       1.000000
X_36_19                       1.000000
X_37_1                        1.000000
X_38_15                       1.000000
X_39_3                        1.000000
X_40_18                       1.000000
X_41_17                       1.000000
X_42_5                        1.000000
X_43_4                        1.000000
X_44_12                       1.000000
X_45_4                        1.000000
X_46_2                        1.000000
X_47_13                       1.000000
X_48_13                       1.000000
X_49_14                       1.000000
X_50_9                        1.000000
X_51_17                       1.000000
X_52_6                        1.000000
X_53_10                       1.000000
X_54_12                       1.000000
X_55_5                        1.000000
X_56_16                       1.000000
X_57_5                        1.000000
X_58_15                       1.000000
X_59_4                        1.000000
X_60_19                       1.000000
X_61_16                       1.000000
X_62_8                        1.000000
X_63_12                       1.000000
X_64_1                        1.000000
X_65_2                        1.000000
X_66_9                        1.000000
X_67_12                       1.000000
X_68_15                       1.000000
X_69_5                        1.000000
X_70_11                       1.000000
X_71_1                        1.000000
X_72_12                       1.000000
X_73_16                       1.000000
X_74_20                       1.000000
X_75_11                       1.000000
X_76_5                        1.000000
X_77_19                       1.000000
X_78_11                       1.000000
X_79_8                        1.000000
X_80_5                        1.000000
X_81_3                        1.000000
X_82_6                        1.000000
X_83_10                       1.000000
X_84_18                       1.000000
X_85_9                        1.000000
X_86_6                        1.000000
X_87_18                       1.000000
X_88_18                       1.000000
X_89_20                       1.000000
X_90_2                        1.000000
X_91_18                       1.000000
X_92_2                        1.000000
X_93_5                        1.000000
X_94_6                        1.000000
X_95_2                        1.000000
X_96_4                        1.000000
X_97_17                       1.000000
X_98_3                        1.000000
X_99_18                       1.000000
X_100_2                       1.000000
X_101_18                      1.000000
X_102_11                      1.000000
X_103_9                       1.000000
X_104_5                       1.000000
X_105_19                      1.000000
X_106_14                      1.000000
X_107_13                      1.000000
X_108_20                      1.000000
X_109_10                      1.000000
X_110_11                      1.000000
X_111_1                       1.000000
X_112_8                       1.000000
X_113_13                      1.000000
X_114_12                      1.000000
X_115_8                       1.000000
X_116_15                      1.000000
X_117_1                       1.000000
X_118_6                       1.000000
X_119_10                      1.000000
X_120_18                      1.000000
X_121_20                      1.000000
X_122_9                       1.000000
X_123_15                      1.000000
X_124_10                      1.000000
X_125_3                       1.000000
X_126_16                      1.000000
X_127_9                       1.000000
X_128_19                      1.000000
X_129_13                      1.000000
X_130_18                      1.000000
X_131_11                      1.000000
X_132_17                      1.000000
X_133_5                       1.000000
X_134_9                       1.000000
X_135_11                      1.000000
X_136_14                      1.000000
X_137_8                       1.000000
X_138_8                       1.000000
X_139_11                      1.000000
X_140_16                      1.000000
X_141_14                      1.000000
X_142_12                      1.000000
X_143_18                      1.000000
X_144_1                       1.000000
X_145_17                      1.000000
X_146_7                       1.000000
X_147_7                       1.000000
X_148_3                       1.000000
X_149_18                      1.000000
X_150_1                       1.000000
X_151_10                      1.000000
X_152_5                       1.000000
X_153_10                      1.000000
X_154_4                       1.000000
X_155_14                      1.000000
X_156_19                      1.000000
X_157_7                       1.000000
X_158_4                       1.000000
X_159_18                      1.000000
X_160_15                      1.000000
X_161_17                      1.000000
X_162_14                      1.000000
X_163_6                       1.000000
X_164_12                      1.000000
X_165_11                      1.000000
X_166_11                      1.000000
X_167_8                       1.000000
X_168_7                       1.000000
X_169_9                       1.000000
X_170_12                      1.000000
X_171_6                       1.000000
X_172_18                      1.000000
X_173_4                       1.000000
X_174_2                       1.000000
X_175_9                       1.000000
X_176_1                       1.000000
X_177_15                      1.000000
X_178_14                      1.000000
X_179_13                      1.000000
X_180_4                       1.000000
X_181_7                       1.000000
X_182_19                      1.000000
X_183_1                       1.000000
X_184_8                       1.000000
X_185_2                       1.000000
X_186_18                      1.000000
X_187_7                       1.000000
X_188_11                      1.000000
X_189_17                      1.000000
X_190_3                       1.000000
X_191_17                      1.000000
X_192_2                       1.000000
X_193_2                       1.000000
X_194_18                      1.000000
X_195_1                       1.000000
X_196_8                       1.000000
X_197_16                      1.000000
X_198_12                      1.000000
X_199_7                       1.000000
X_200_13                      1.000000
X_201_6                       1.000000
X_202_8                       1.000000
X_203_2                       1.000000
X_204_12                      1.000000
X_205_17                      1.000000
X_206_19                      1.000000
X_207_18                      1.000000
X_208_6                       1.000000
X_209_1                       1.000000
X_210_3                       1.000000
X_211_12                      1.000000
X_212_10                      1.000000
X_213_16                      1.000000
X_214_14                      1.000000
X_215_17                      1.000000
X_216_16                      1.000000
X_217_15                      1.000000
X_218_1                       1.000000
X_219_2                       1.000000
X_220_9                       1.000000
X_221_6                       1.000000
X_222_6                       1.000000
X_223_3                       1.000000
X_224_7                       1.000000
X_225_10                      1.000000
X_226_3                       1.000000
X_227_19                      1.000000
X_228_1                       1.000000
X_229_3                       1.000000
X_230_20                      1.000000
X_231_16                      1.000000
X_232_20                      1.000000
X_233_16                      1.000000
X_234_13                      1.000000
X_235_7                       1.000000
X_236_1                       1.000000
X_237_15                      1.000000
X_238_15                      1.000000
X_239_11                      1.000000
X_240_19                      1.000000
X_241_12                      1.000000
X_242_18                      1.000000
X_243_10                      1.000000
X_244_2                       1.000000
X_245_11                      1.000000
X_246_2                       1.000000
X_247_4                       1.000000
X_248_4                       1.000000
X_249_7                       1.000000
X_250_6                       1.000000
X_251_7                       1.000000
X_252_8                       1.000000
X_253_20                      1.000000
X_254_8                       1.000000
X_255_5                       1.000000
X_256_20                      1.000000
X_257_10                      1.000000
X_258_10                      1.000000
X_259_1                       1.000000
X_260_19                      1.000000
X_261_13                      1.000000
X_262_3                       1.000000
X_263_6                       1.000000
X_264_4                       1.000000
X_265_20                      1.000000
X_266_7                       1.000000
X_267_9                       1.000000
X_268_17                      1.000000
X_269_15                      1.000000
X_270_8                       1.000000
X_271_8                       1.000000
X_272_13                      1.000000
X_273_18                      1.000000
X_274_8                       1.000000
X_275_12                      1.000000
X_276_6                       1.000000
X_277_11                      1.000000
X_278_2                       1.000000
X_279_11                      1.000000
X_280_11                      1.000000
X_281_9                       1.000000
X_282_11                      1.000000
X_283_6                       1.000000
X_284_2                       1.000000
X_285_6                       1.000000
X_286_10                      1.000000
X_287_4                       1.000000
X_288_4                       1.000000
X_289_12                      1.000000
X_290_19                      1.000000
X_291_17                      1.000000
X_292_8                       1.000000
X_293_7                       1.000000
X_294_7                       1.000000
X_295_19                      1.000000
X_296_15                      1.000000
X_297_11                      1.000000
X_298_16                      1.000000
X_299_20                      1.000000
X_300_5                       1.000000
X_301_15                      1.000000
X_302_16                      1.000000
X_303_3                       1.000000
X_304_1                       1.000000
X_305_20                      1.000000
X_306_7                       1.000000
X_307_4                       1.000000
X_308_8                       1.000000
X_309_19                      1.000000
X_310_1                       1.000000
X_311_10                      1.000000
X_312_12                      1.000000
X_313_4                       1.000000
X_314_9                       1.000000
X_315_17                      1.000000
X_316_18                      1.000000
X_317_10                      1.000000
X_318_9                       1.000000
X_319_13                      1.000000
X_320_14                      1.000000
X_321_20                      1.000000
X_322_12                      1.000000
X_323_14                      1.000000
X_324_16                      1.000000
X_325_8                       1.000000
X_326_18                      1.000000
X_327_20                      1.000000
X_328_2                       1.000000
X_329_10                      1.000000
X_330_3                       1.000000
X_331_7                       1.000000
X_332_20                      1.000000
X_333_15                      1.000000
X_334_10                      1.000000
X_335_5                       1.000000
X_336_1                       1.000000
X_337_13                      1.000000
X_338_18                      1.000000
X_339_17                      1.000000
X_340_3                       1.000000
X_341_4                       1.000000
X_342_20                      1.000000
X_343_9                       1.000000
X_344_9                       1.000000
X_345_17                      1.000000
X_346_13                      1.000000
X_347_7                       1.000000
X_348_14                      1.000000
X_349_1                       1.000000
X_350_4                       1.000000
X_351_20                      1.000000
X_352_10                      1.000000
X_353_17                      1.000000
X_354_20                      1.000000
X_355_9                       1.000000
X_356_13                      1.000000
X_357_19                      1.000000
X_358_4                       1.000000
X_359_18                      1.000000
X_360_15                      1.000000
X_361_19                      1.000000
X_362_10                      1.000000
X_363_20                      1.000000
X_364_14                      1.000000
X_365_9                       1.000000
X_366_2                       1.000000
X_367_14                      1.000000
X_368_12                      1.000000
X_369_13                      1.000000
X_370_20                      1.000000
X_371_15                      1.000000
X_372_20                      1.000000
X_373_15                      1.000000
X_374_6                       1.000000
X_375_6                       1.000000
X_376_4                       1.000000
X_377_14                      1.000000
X_378_10                      1.000000
X_379_2                       1.000000
X_380_9                       1.000000
X_381_10                      1.000000
X_382_16                      1.000000
X_383_12                      1.000000
X_384_11                      1.000000
X_385_20                      1.000000
X_386_17                      1.000000
X_387_8                       1.000000
X_388_3                       1.000000
X_389_16                      1.000000
X_390_18                      1.000000
X_391_1                       1.000000
X_392_4                       1.000000
X_393_2                       1.000000
X_394_18                      1.000000
X_395_13                      1.000000
X_396_7                       1.000000
X_397_16                      1.000000
X_398_16                      1.000000
X_399_13                      1.000000
X_400_3                       1.000000
X_401_2                       1.000000
X_402_8                       1.000000
X_403_15                      1.000000
X_404_5                       1.000000
X_405_3                       1.000000
X_406_20                      1.000000
X_407_10                      1.000000
X_408_3                       1.000000
X_409_9                       1.000000
X_410_15                      1.000000
X_411_15                      1.000000
X_412_7                       1.000000
X_413_12                      1.000000
X_414_14                      1.000000
X_415_8                       1.000000
X_416_12                      1.000000
X_417_13                      1.000000
X_418_14                      1.000000
X_419_6                       1.000000
X_420_3                       1.000000
X_421_12                      1.000000
X_422_5                       1.000000
X_423_16                      1.000000
X_424_18                      1.000000
X_425_16                      1.000000
X_426_3                       1.000000
X_427_1                       1.000000
X_428_16                      1.000000
X_429_6                       1.000000
X_430_14                      1.000000
X_431_13                      1.000000
X_432_19                      1.000000
X_433_15                      1.000000
X_434_8                       1.000000
X_435_13                      1.000000
X_436_19                      1.000000
X_437_16                      1.000000
X_438_6                       1.000000
X_439_16                      1.000000
X_440_17                      1.000000
X_441_10                      1.000000
X_442_14                      1.000000
X_443_5                       1.000000
X_444_3                       1.000000
X_445_6                       1.000000
X_446_16                      1.000000
X_447_5                       1.000000
X_448_17                      1.000000
X_449_11                      1.000000
X_450_15                      1.000000
X_451_14                      1.000000
X_452_7                       1.000000
X_453_11                      1.000000
X_454_13                      1.000000
X_455_17                      1.000000
X_456_17                      1.000000
X_457_5                       1.000000
X_458_5                       1.000000
X_459_5                       1.000000
X_460_19                      1.000000
X_461_14                      1.000000
X_462_4                       1.000000
X_463_16                      1.000000
X_464_4                       1.000000
X_465_11                      1.000000
X_466_7                       1.000000
X_467_19                      1.000000
X_468_5                       1.000000
X_469_17                      1.000000
X_470_13                      1.000000
X_471_5                       1.000000
X_472_3                       1.000000
X_473_1                       1.000000
X_474_4                       1.000000
X_475_11                      1.000000
X_476_20                      1.000000
X_477_17                      1.000000
X_478_14                      1.000000
X_479_7                       1.000000
X_480_20                      1.000000
X_481_7                       1.000000
X_482_19                      1.000000
X_483_7                       1.000000
X_484_19                      1.000000
X_485_9                       1.000000
X_486_17                      1.000000
X_487_14                      1.000000
X_488_1                       1.000000
X_489_9                       1.000000
X_490_15                      1.000000
X_491_8                       1.000000
X_492_4                       1.000000
X_493_12                      1.000000
X_494_19                      1.000000
X_495_9                       1.000000
X_496_5                       1.000000
X_497_2                       1.000000
X_498_17                      1.000000
X_499_20                      1.000000
X_500_14                      1.000000
All other variables in the range 1-10001 are 0.
